; Copyright (c) 2026 The RIINA Authors. All rights reserved.
; Auto-generated from 02_FORMAL/coq/domains/mobile_os/AnimationSystem.v (22 validations)
; Generated by scripts/generate-full-stack.py
;
; Translation Validation for AnimationSystem
; Layer 9: Verifies compiler backend preserves formal semantics.
; Each assertion checks source IR ≡ target code for a proven property.

(set-logic QF_LIA)
(set-option :produce-models true)

; IR node representation
(declare-sort IRNode 0)
(declare-sort TargetNode 0)

; Time: source semantics (matches Coq)
(declare-fun source_Time () Bool)
(declare-fun target_Time () Bool)
(assert (= source_Time target_Time))

; Position: source semantics (matches Coq)
(declare-fun source_Position () Bool)
(declare-fun target_Position () Bool)
(assert (= source_Position target_Position))

; Velocity: source semantics (matches Coq)
(declare-fun source_Velocity () Bool)
(declare-fun target_Velocity () Bool)
(assert (= source_Velocity target_Velocity))

; positions_smooth: source semantics (matches Coq)
(declare-fun source_positions_smooth () Bool)
(declare-fun target_positions_smooth () Bool)
(assert (= source_positions_smooth target_positions_smooth))

; second_derivative_continuous: source semantics (matches Coq)
(declare-fun source_second_derivative_continuous () Bool)
(declare-fun target_second_derivative_continuous () Bool)
(assert (= source_second_derivative_continuous target_second_derivative_continuous))

; well_formed_spring: source semantics (matches Coq)
(declare-fun source_well_formed_spring () Bool)
(declare-fun target_well_formed_spring () Bool)
(assert (= source_well_formed_spring target_well_formed_spring))

; reaches_target: source semantics (matches Coq)
(declare-fun source_reaches_target () Bool)
(declare-fun target_reaches_target () Bool)
(assert (= source_reaches_target target_reaches_target))

; frame_budget_60hz: source semantics (matches Coq)
(declare-fun source_frame_budget_60hz () Bool)
(declare-fun target_frame_budget_60hz () Bool)
(assert (= source_frame_budget_60hz target_frame_budget_60hz))

; frame_budget_120hz: source semantics (matches Coq)
(declare-fun source_frame_budget_120hz () Bool)
(declare-fun target_frame_budget_120hz () Bool)
(assert (= source_frame_budget_120hz target_frame_budget_120hz))

; meets_frame_budget: source semantics (matches Coq)
(declare-fun source_meets_frame_budget () Bool)
(declare-fun target_meets_frame_budget () Bool)
(assert (= source_meets_frame_budget target_meets_frame_budget))

; well_formed_anim_control: source semantics (matches Coq)
(declare-fun source_well_formed_anim_control () Bool)
(declare-fun target_well_formed_anim_control () Bool)
(assert (= source_well_formed_anim_control target_well_formed_anim_control))

; well_formed_anim_group: source semantics (matches Coq)
(declare-fun source_well_formed_anim_group () Bool)
(declare-fun target_well_formed_anim_group () Bool)
(assert (= source_well_formed_anim_group target_well_formed_anim_group))

; well_formed_layer_anim: source semantics (matches Coq)
(declare-fun source_well_formed_layer_anim () Bool)
(declare-fun target_well_formed_layer_anim () Bool)
(assert (= source_well_formed_layer_anim target_well_formed_layer_anim))

; keyframe_in_range: source semantics (matches Coq)
(declare-fun source_keyframe_in_range () Bool)
(declare-fun target_keyframe_in_range () Bool)
(assert (= source_keyframe_in_range target_keyframe_in_range))

; spring_converges: source semantics (matches Coq)
(declare-fun source_spring_converges () Bool)
(declare-fun target_spring_converges () Bool)
(assert (= source_spring_converges target_spring_converges))

; nth_error_In_bounds: translation preserves property (matches Coq: Lemma)
(declare-fun source_nth_error_In_bounds () Bool)
(declare-fun target_nth_error_In_bounds () Bool)
(assert (= source_nth_error_In_bounds target_nth_error_In_bounds))

; spring_physics_accurate: translation preserves property (matches Coq: Theorem)
(declare-fun source_spring_physics_accurate () Bool)
(declare-fun target_spring_physics_accurate () Bool)
(assert (= source_spring_physics_accurate target_spring_physics_accurate))

; animation_mathematically_smooth: translation preserves property (matches Coq: Theorem)
(declare-fun source_animation_mathematically_smooth () Bool)
(declare-fun target_animation_mathematically_smooth () Bool)
(assert (= source_animation_mathematically_smooth target_animation_mathematically_smooth))

; spring_has_valid_duration: translation preserves property (matches Coq: Theorem)
(declare-fun source_spring_has_valid_duration () Bool)
(declare-fun target_spring_has_valid_duration () Bool)
(assert (= source_spring_has_valid_duration target_spring_has_valid_duration))

; position_velocity_match: translation preserves property (matches Coq: Theorem)
(declare-fun source_position_velocity_match () Bool)
(declare-fun target_position_velocity_match () Bool)
(assert (= source_position_velocity_match target_position_velocity_match))

; nth_error_Some_length: translation preserves property (matches Coq: Lemma)
(declare-fun source_nth_error_Some_length () Bool)
(declare-fun target_nth_error_Some_length () Bool)
(assert (= source_nth_error_Some_length target_nth_error_Some_length))

; animation_frame_budget_met: translation preserves property (matches Coq: Theorem)
(declare-fun source_animation_frame_budget_met () Bool)
(declare-fun target_animation_frame_budget_met () Bool)
(assert (= source_animation_frame_budget_met target_animation_frame_budget_met))

; implicit_animation_smooth: translation preserves property (matches Coq: Theorem)
(declare-fun source_implicit_animation_smooth () Bool)
(declare-fun target_implicit_animation_smooth () Bool)
(assert (= source_implicit_animation_smooth target_implicit_animation_smooth))

; explicit_animation_controllable: translation preserves property (matches Coq: Theorem)
(declare-fun source_explicit_animation_controllable () Bool)
(declare-fun target_explicit_animation_controllable () Bool)
(assert (= source_explicit_animation_controllable target_explicit_animation_controllable))

; animation_group_synchronized: translation preserves property (matches Coq: Theorem)
(declare-fun source_animation_group_synchronized () Bool)
(declare-fun target_animation_group_synchronized () Bool)
(assert (= source_animation_group_synchronized target_animation_group_synchronized))

; layer_animation_gpu_accelerated: translation preserves property (matches Coq: Theorem)
(declare-fun source_layer_animation_gpu_accelerated () Bool)
(declare-fun target_layer_animation_gpu_accelerated () Bool)
(assert (= source_layer_animation_gpu_accelerated target_layer_animation_gpu_accelerated))

; animation_timing_precise: translation preserves property (matches Coq: Theorem)
(declare-fun source_animation_timing_precise () Bool)
(declare-fun target_animation_timing_precise () Bool)
(assert (= source_animation_timing_precise target_animation_timing_precise))

; keyframe_values_interpolated: translation preserves property (matches Coq: Theorem)
(declare-fun source_keyframe_values_interpolated () Bool)
(declare-fun target_keyframe_values_interpolated () Bool)
(assert (= source_keyframe_values_interpolated target_keyframe_values_interpolated))

; spring_animation_converges: translation preserves property (matches Coq: Theorem)
(declare-fun source_spring_animation_converges () Bool)
(declare-fun target_spring_animation_converges () Bool)
(assert (= source_spring_animation_converges target_spring_animation_converges))

; transition_animation_reversible: translation preserves property (matches Coq: Theorem)
(declare-fun source_transition_animation_reversible () Bool)
(declare-fun target_transition_animation_reversible () Bool)
(assert (= source_transition_animation_reversible target_transition_animation_reversible))

; animation_delegate_notified: translation preserves property (matches Coq: Theorem)
(declare-fun source_animation_delegate_notified () Bool)
(declare-fun target_animation_delegate_notified () Bool)
(assert (= source_animation_delegate_notified target_animation_delegate_notified))

; animation_removed_cleanly: translation preserves property (matches Coq: Theorem)
(declare-fun source_animation_removed_cleanly () Bool)
(declare-fun target_animation_removed_cleanly () Bool)
(assert (= source_animation_removed_cleanly target_animation_removed_cleanly))

; animation_speed_adjustable: translation preserves property (matches Coq: Theorem)
(declare-fun source_animation_speed_adjustable () Bool)
(declare-fun target_animation_speed_adjustable () Bool)
(assert (= source_animation_speed_adjustable target_animation_speed_adjustable))

; animation_fill_mode_correct: translation preserves property (matches Coq: Theorem)
(declare-fun source_animation_fill_mode_correct () Bool)
(declare-fun target_animation_fill_mode_correct () Bool)
(assert (= source_animation_fill_mode_correct target_animation_fill_mode_correct))

; animation_autoreverses_symmetric: translation preserves property (matches Coq: Theorem)
(declare-fun source_animation_autoreverses_symmetric () Bool)
(declare-fun target_animation_autoreverses_symmetric () Bool)
(assert (= source_animation_autoreverses_symmetric target_animation_autoreverses_symmetric))

; animation_repeat_count_honored: translation preserves property (matches Coq: Theorem)
(declare-fun source_animation_repeat_count_honored () Bool)
(declare-fun target_animation_repeat_count_honored () Bool)
(assert (= source_animation_repeat_count_honored target_animation_repeat_count_honored))

; animation_group_non_empty: translation preserves property (matches Coq: Theorem)
(declare-fun source_animation_group_non_empty () Bool)
(declare-fun target_animation_group_non_empty () Bool)
(assert (= source_animation_group_non_empty target_animation_group_non_empty))

; Verify all translation validations are satisfiable
(check-sat)
(exit)
